<?xml version = "1.0" standalone="yes"?>
<!-- This file has been generated by DOcplex version 2.23.222  -->
<CPLEXSolution version="1.0">
 <header
   problemName="CVRP"
   objectiveValue="11880.1"
  />
 <variables>
  <variable name="x_0_1" index="0" value="1.00000"/>
  <variable name="x_0_3" index="2" value="1.00000"/>
  <variable name="x_0_8" index="7" value="1.00000"/>
  <variable name="x_0_9" index="8" value="1.00000"/>
  <variable name="x_0_10" index="9" value="1.00000"/>
  <variable name="x_0_11" index="10" value="1.00000"/>
  <variable name="x_0_13" index="12" value="1.00000"/>
  <variable name="x_0_14" index="13" value="1.00000"/>
  <variable name="x_0_16" index="15" value="1.00000"/>
  <variable name="x_0_17" index="16" value="1.00000"/>
  <variable name="x_0_18" index="17" value="1.00000"/>
  <variable name="x_1_0" index="19" value="1.00000"/>
  <variable name="x_2_0" index="38" value="1.00000"/>
  <variable name="x_3_15" index="71" value="1.00000"/>
  <variable name="x_4_0" index="76" value="1.00000"/>
  <variable name="x_5_0" index="95" value="1.00000"/>
  <variable name="x_6_0" index="114" value="1.00000"/>
  <variable name="x_7_0" index="133" value="1.00000"/>
  <variable name="x_8_19" index="170" value="1.00000"/>
  <variable name="x_9_5" index="176" value="1.00000"/>
  <variable name="x_10_0" index="190" value="1.00000"/>
  <variable name="x_11_4" index="213" value="1.00000"/>
  <variable name="x_12_6" index="234" value="1.00000"/>
  <variable name="x_13_0" index="247" value="1.00000"/>
  <variable name="x_14_7" index="273" value="1.00000"/>
  <variable name="x_15_0" index="285" value="1.00000"/>
  <variable name="x_16_2" index="306" value="1.00000"/>
  <variable name="x_17_0" index="323" value="1.00000"/>
  <variable name="x_18_0" index="342" value="1.00000"/>
  <variable name="x_19_12" index="373" value="1.00000"/>
  <variable name="u_1" index="380" value="51.00000"/>
  <variable name="u_2" index="381" value="55.00000"/>
  <variable name="u_3" index="382" value="14.00000"/>
  <variable name="u_4" index="383" value="55.00000"/>
  <variable name="u_5" index="384" value="55.00000"/>
  <variable name="u_6" index="385" value="51.00000"/>
  <variable name="u_7" index="386" value="55.00000"/>
  <variable name="u_8" index="387" value="22.00000"/>
  <variable name="u_9" index="388" value="37.00000"/>
  <variable name="u_10" index="389" value="52.00000"/>
  <variable name="u_11" index="390" value="46.00000"/>
  <variable name="u_12" index="391" value="42.00000"/>
  <variable name="u_13" index="392" value="41.00000"/>
  <variable name="u_14" index="393" value="15.00000"/>
  <variable name="u_15" index="394" value="49.00000"/>
  <variable name="u_16" index="395" value="30.00000"/>
  <variable name="u_17" index="396" value="55.00000"/>
  <variable name="u_18" index="397" value="55.00000"/>
  <variable name="u_19" index="398" value="39.00000"/>
 </variables>
</CPLEXSolution>
